56866
32, 38, 8, 44, 19, 49, 54, 34, 9, 14, 2, 16, 22, 10, 29, 46, 39, 36, 15, 52, 45, 11, 25, 31, 1, 27, 33, 42, 12, 18, 4, 30, 47, 53, 23, 21, 17, 48, 26, 55, 6, 28, 3, 43, 40, 51, 5, 35, 24, 50, 20, 7, 37, 13, 41
